NAME : eil76.opt.tour
COMMENT : Optimum tour for eil76.tsp (538)
TYPE : TSP
DIMENSION : 76
TOUR_SECTION
27
45
29
48
30
74
2
68
4
75
76
67
26
12
40
17
51
6
33
73
1
63
16
3
44
32
9
39
72
58
10
31
55
25
50
18
24
49
23
56
41
43
42
64
22
62
28
61
21
47
36
69
71
60
70
20
37
5
15
57
13
54
19
14
59
66
65
38
11
53
35
7
8
46
34
52
-1
EOF